
Gurobi 11.0.3 (linux64) logging started Wed Nov 12 20:05:29 2025

Set parameter LogFile to value "./log/train/CA_500_600_threads_0/CA_25.lp.log"
Set parameter TimeLimit to value 3600
Gurobi Optimizer version 11.0.3 build v11.0.3rc0 (linux64 - "Ubuntu 22.04.5 LTS")

CPU model: AMD Ryzen 9 9900X 12-Core Processor, instruction set [SSE2|AVX|AVX2|AVX512]
Thread count: 12 physical cores, 24 logical processors, using up to 24 threads

Optimize a model with 609 rows, 600 columns and 3023 nonzeros
Model fingerprint: 0xa73474fb
Variable types: 0 continuous, 600 integer (600 binary)
Coefficient statistics:
  Matrix range     [1e+00, 1e+00]
  Objective range  [1e+01, 2e+03]
  Bounds range     [1e+00, 1e+00]
  RHS range        [1e+00, 1e+00]
Found heuristic solution: objective 17313.407880
Presolve removed 46 rows and 76 columns
Presolve time: 0.01s
Presolved: 563 rows, 524 columns, 2961 nonzeros
Found heuristic solution: objective 22068.154243
Variable types: 0 continuous, 524 integer (524 binary)
Found heuristic solution: objective 22699.043618

Root relaxation: objective 3.038834e+04, 1477 iterations, 0.04 seconds (0.09 work units)

    Nodes    |    Current Node    |     Objective Bounds      |     Work
 Expl Unexpl |  Obj  Depth IntInf | Incumbent    BestBd   Gap | It/Node Time

     0     0 30388.3372    0  299 22699.0436 30388.3372  33.9%     -    0s
H    0     0                    24719.010459 30388.3372  22.9%     -    0s
H    0     0                    25067.687657 30388.3372  21.2%     -    0s
H    0     0                    25369.811681 30387.2959  19.8%     -    0s
H    0     0                    25504.869627 30387.2959  19.1%     -    0s
     0     0 30265.9732    0  306 25504.8696 30265.9732  18.7%     -    0s
     0     0 30214.9742    0  314 25504.8696 30214.9742  18.5%     -    0s
     0     0 30214.9742    0  312 25504.8696 30214.9742  18.5%     -    0s
     0     0 30214.9742    0  307 25504.8696 30214.9742  18.5%     -    0s
     0     0 30169.4290    0  313 25504.8696 30169.4290  18.3%     -    0s
     0     0 30169.4290    0  313 25504.8696 30169.4290  18.3%     -    0s
H    0     0                    26122.136192 30169.4290  15.5%     -    0s
     0     2 30169.4290    0  313 26122.1362 30169.4290  15.5%     -    0s
H   79    85                    26137.836247 30124.8337  15.3%   215    0s
H   85   104                    27076.104395 30124.8337  11.3%   215    0s
H  124   137                    27234.199141 30124.8337  10.6%   183    0s
H  126   137                    27274.448819 30124.8337  10.5%   183    0s
H  154   139                    27668.646940 30124.8337  8.88%   165    0s
H  178   139                    27688.191027 30124.8337  8.80%   157    0s
* 1277   623              17    27688.795476 29608.9247  6.93%   134    1s
  8291  1269 28246.6812   26  238 27688.7955 28600.8273  3.29%   122    5s
* 9542  1356              28    27763.656046 28423.5066  2.38%   119    5s

Cutting planes:
  Gomory: 2
  Clique: 26
  RLT: 1

Explored 15919 nodes (1709008 simplex iterations) in 6.11 seconds (16.65 work units)
Thread count was 24 (of 24 available processors)

Solution count 10: 27763.7 27688.8 27688.2 ... 25504.9

Optimal solution found (tolerance 1.00e-04)
Best objective 2.776365604619e+04, best bound 2.776365604619e+04, gap 0.0000%

User-callback calls 33596, time in user-callback 0.02 sec
